c description: Random 3-CNF over 11 variables and 33 clauses
p cnf 11 33
2 4 -5 0
2 3 -11 0
4 7 9 0
2 -5 11 0
3 -6 -11 0
2 6 -7 0
-1 3 -6 0
-3 5 11 0
3 -8 -11 0
7 9 11 0
5 9 -11 0
-3 8 -9 0
4 8 -11 0
-1 2 -3 0
-7 8 10 0
5 -6 -7 0
1 6 8 0
3 -5 6 0
-3 -7 -9 0
-1 2 -11 0
5 7 9 0
-7 8 11 0
-2 -5 6 0
6 8 9 0
4 -9 11 0
2 4 6 0
2 -7 9 0
3 -10 -11 0
-7 -8 11 0
2 -6 -10 0
-1 3 -10 0
1 -6 -11 0
-1 -2 6 0